c A SAT instance generated from a 3-CNF formula that had 21 clauses and 7 variables
p cnf 7 21
-2 7 5 0
-4 -6 -3 0
6 -3 -7 0
7 -2 -4 0
4 7 6 0
-5 -1 -3 0
-2 5 4 0
6 1 2 0
5 2 3 0
4 -5 2 0
7 3 -2 0
4 -3 -5 0
-4 3 -1 0
2 -1 4 0
-4 -1 6 0
-4 -5 6 0
5 6 -4 0
-2 3 1 0
-5 4 -1 0
-1 -6 -4 0
-4 -7 -1 0
